28 100000
41013 57
24054 5
66266 69
71415 52
16289 28
61222 50
83224 60
91010 25
11745 21
47671 10
32999 46
87342 26
87959 62
80074 20
61556 22
38362 25
41272 88
56708 79
26439 55
83339 64
27294 94
29819 10
90112 91
3075 58
18461 86
11657 18
78395 12
17222 82
